p cnf 386 460
-17 -13 -15 21 22 0
-17 -13 -15 21 -22 0
-17 -13 -15 -21 23 0
-17 -13 -15 -21 -23 0
-11 -13 -12 24 25 0
-11 -13 -12 24 -25 0
-11 -13 -12 -24 26 0
-11 -13 -12 -24 -26 0
20 11 16 27 28 0
20 11 16 27 -28 0
20 11 16 -27 29 0
20 11 16 -27 -29 0
-4 2 -16 30 31 0
-4 2 -16 30 -31 0
-4 2 -16 -30 32 0
-4 2 -16 -30 -32 0
-4 14 1 33 34 0
-4 14 1 33 -34 0
-4 14 1 -33 35 0
-4 14 1 -33 -35 0
-17 -6 16 36 37 0
-17 -6 16 36 -37 0
-17 -6 16 -36 38 0
-17 -6 16 -36 -38 0
-3 7 -1 39 40 0
-3 7 -1 39 -40 0
-3 7 -1 -39 41 0
-3 7 -1 -39 -41 0
13 -6 10 42 43 0
13 -6 10 42 -43 0
13 -6 10 -42 44 0
13 -6 10 -42 -44 0
9 -18 -12 45 46 0
9 -18 -12 45 -46 0
9 -18 -12 -45 47 0
9 -18 -12 -45 -47 0
4 -1 -11 48 49 0
4 -1 -11 48 -49 0
4 -1 -11 -48 50 0
4 -1 -11 -48 -50 0
8 11 5 51 52 0
8 11 5 51 -52 0
8 11 5 -51 53 0
8 11 5 -51 -53 0
-12 -5 -8 54 55 0
-12 -5 -8 54 -55 0
-12 -5 -8 -54 56 0
-12 -5 -8 -54 -56 0
-11 -19 -1 57 58 0
-11 -19 -1 57 -58 0
-11 -19 -1 -57 59 0
-11 -19 -1 -57 -59 0
-7 9 -2 60 61 0
-7 9 -2 60 -61 0
-7 9 -2 -60 62 0
-7 9 -2 -60 -62 0
-15 7 9 63 64 0
-15 7 9 63 -64 0
-15 7 9 -63 65 0
-15 7 9 -63 -65 0
-8 -11 -13 66 67 0
-8 -11 -13 66 -67 0
-8 -11 -13 -66 68 0
-8 -11 -13 -66 -68 0
-2 -18 13 69 70 0
-2 -18 13 69 -70 0
-2 -18 13 -69 71 0
-2 -18 13 -69 -71 0
7 13 -4 72 73 0
7 13 -4 72 -73 0
7 13 -4 -72 74 0
7 13 -4 -72 -74 0
12 -13 -16 75 76 0
12 -13 -16 75 -76 0
12 -13 -16 -75 77 0
12 -13 -16 -75 -77 0
-18 5 2 78 79 0
-18 5 2 78 -79 0
-18 5 2 -78 80 0
-18 5 2 -78 -80 0
-6 16 -3 81 82 0
-6 16 -3 81 -82 0
-6 16 -3 -81 83 0
-6 16 -3 -81 -83 0
17 6 -18 84 85 0
17 6 -18 84 -85 0
17 6 -18 -84 86 0
17 6 -18 -84 -86 0
-14 -8 4 87 88 0
-14 -8 4 87 -88 0
-14 -8 4 -87 89 0
-14 -8 4 -87 -89 0
11 5 -1 90 91 0
11 5 -1 90 -91 0
11 5 -1 -90 92 0
11 5 -1 -90 -92 0
20 6 4 93 94 0
20 6 4 93 -94 0
20 6 4 -93 95 0
20 6 4 -93 -95 0
-11 9 -4 96 97 0
-11 9 -4 96 -97 0
-11 9 -4 -96 98 0
-11 9 -4 -96 -98 0
10 20 -18 99 100 0
10 20 -18 99 -100 0
10 20 -18 -99 101 0
10 20 -18 -99 -101 0
18 -3 -7 102 103 0
18 -3 -7 102 -103 0
18 -3 -7 -102 104 0
18 -3 -7 -102 -104 0
9 -11 -4 105 106 0
9 -11 -4 105 -106 0
9 -11 -4 -105 107 0
9 -11 -4 -105 -107 0
-8 -16 -17 108 109 0
-8 -16 -17 108 -109 0
-8 -16 -17 -108 110 0
-8 -16 -17 -108 -110 0
19 -8 -3 111 112 0
19 -8 -3 111 -112 0
19 -8 -3 -111 113 0
19 -8 -3 -111 -113 0
-11 12 -13 114 115 0
-11 12 -13 114 -115 0
-11 12 -13 -114 116 0
-11 12 -13 -114 -116 0
-16 3 -19 117 118 0
-16 3 -19 117 -118 0
-16 3 -19 -117 119 0
-16 3 -19 -117 -119 0
-6 13 -2 120 121 0
-6 13 -2 120 -121 0
-6 13 -2 -120 122 0
-6 13 -2 -120 -122 0
-3 4 10 123 124 0
-3 4 10 123 -124 0
-3 4 10 -123 125 0
-3 4 10 -123 -125 0
-12 9 17 126 127 0
-12 9 17 126 -127 0
-12 9 17 -126 128 0
-12 9 17 -126 -128 0
9 -1 -20 129 130 0
9 -1 -20 129 -130 0
9 -1 -20 -129 131 0
9 -1 -20 -129 -131 0
13 2 11 132 133 0
13 2 11 132 -133 0
13 2 11 -132 134 0
13 2 11 -132 -134 0
16 -11 5 135 136 0
16 -11 5 135 -136 0
16 -11 5 -135 137 0
16 -11 5 -135 -137 0
13 -5 -9 138 139 0
13 -5 -9 138 -139 0
13 -5 -9 -138 140 0
13 -5 -9 -138 -140 0
19 -10 7 141 142 0
19 -10 7 141 -142 0
19 -10 7 -141 143 0
19 -10 7 -141 -143 0
6 -19 -5 144 145 0
6 -19 -5 144 -145 0
6 -19 -5 -144 146 0
6 -19 -5 -144 -146 0
-8 -3 7 147 148 0
-8 -3 7 147 -148 0
-8 -3 7 -147 149 0
-8 -3 7 -147 -149 0
-8 1 13 150 151 0
-8 1 13 150 -151 0
-8 1 13 -150 152 0
-8 1 13 -150 -152 0
20 -17 10 153 154 0
20 -17 10 153 -154 0
20 -17 10 -153 155 0
20 -17 10 -153 -155 0
-7 17 -16 156 157 0
-7 17 -16 156 -157 0
-7 17 -16 -156 158 0
-7 17 -16 -156 -158 0
20 -10 13 159 160 0
20 -10 13 159 -160 0
20 -10 13 -159 161 0
20 -10 13 -159 -161 0
-2 -7 -9 162 163 0
-2 -7 -9 162 -163 0
-2 -7 -9 -162 164 0
-2 -7 -9 -162 -164 0
-20 18 4 165 166 0
-20 18 4 165 -166 0
-20 18 4 -165 167 0
-20 18 4 -165 -167 0
-11 -19 17 168 169 0
-11 -19 17 168 -169 0
-11 -19 17 -168 170 0
-11 -19 17 -168 -170 0
-6 -14 -19 171 172 0
-6 -14 -19 171 -172 0
-6 -14 -19 -171 173 0
-6 -14 -19 -171 -173 0
19 7 5 174 175 0
19 7 5 174 -175 0
19 7 5 -174 176 0
19 7 5 -174 -176 0
-5 -4 -15 177 178 0
-5 -4 -15 177 -178 0
-5 -4 -15 -177 179 0
-5 -4 -15 -177 -179 0
4 16 -10 180 181 0
4 16 -10 180 -181 0
4 16 -10 -180 182 0
4 16 -10 -180 -182 0
-15 -18 10 183 184 0
-15 -18 10 183 -184 0
-15 -18 10 -183 185 0
-15 -18 10 -183 -185 0
-15 3 -1 186 187 0
-15 3 -1 186 -187 0
-15 3 -1 -186 188 0
-15 3 -1 -186 -188 0
5 20 -9 189 190 0
5 20 -9 189 -190 0
5 20 -9 -189 191 0
5 20 -9 -189 -191 0
-7 10 12 192 193 0
-7 10 12 192 -193 0
-7 10 12 -192 194 0
-7 10 12 -192 -194 0
-4 1 13 195 196 0
-4 1 13 195 -196 0
-4 1 13 -195 197 0
-4 1 13 -195 -197 0
5 14 -17 198 199 0
5 14 -17 198 -199 0
5 14 -17 -198 200 0
5 14 -17 -198 -200 0
5 -2 3 201 202 0
5 -2 3 201 -202 0
5 -2 3 -201 203 0
5 -2 3 -201 -203 0
4 -5 -15 204 205 0
4 -5 -15 204 -205 0
4 -5 -15 -204 206 0
4 -5 -15 -204 -206 0
-12 1 4 207 208 0
-12 1 4 207 -208 0
-12 1 4 -207 209 0
-12 1 4 -207 -209 0
15 -7 20 210 211 0
15 -7 20 210 -211 0
15 -7 20 -210 212 0
15 -7 20 -210 -212 0
10 19 -17 213 214 0
10 19 -17 213 -214 0
10 19 -17 -213 215 0
10 19 -17 -213 -215 0
-16 5 -19 216 217 0
-16 5 -19 216 -217 0
-16 5 -19 -216 218 0
-16 5 -19 -216 -218 0
-4 -14 -3 219 220 0
-4 -14 -3 219 -220 0
-4 -14 -3 -219 221 0
-4 -14 -3 -219 -221 0
-11 12 -14 222 223 0
-11 12 -14 222 -223 0
-11 12 -14 -222 224 0
-11 12 -14 -222 -224 0
-1 17 -6 225 226 0
-1 17 -6 225 -226 0
-1 17 -6 -225 227 0
-1 17 -6 -225 -227 0
-3 -11 -19 228 229 0
-3 -11 -19 228 -229 0
-3 -11 -19 -228 230 0
-3 -11 -19 -228 -230 0
-18 12 -4 231 232 0
-18 12 -4 231 -232 0
-18 12 -4 -231 233 0
-18 12 -4 -231 -233 0
-14 -13 7 234 235 0
-14 -13 7 234 -235 0
-14 -13 7 -234 236 0
-14 -13 7 -234 -236 0
9 -2 -18 237 238 0
9 -2 -18 237 -238 0
9 -2 -18 -237 239 0
9 -2 -18 -237 -239 0
1 -16 -17 240 241 0
1 -16 -17 240 -241 0
1 -16 -17 -240 242 0
1 -16 -17 -240 -242 0
6 -18 9 243 244 0
6 -18 9 243 -244 0
6 -18 9 -243 245 0
6 -18 9 -243 -245 0
3 -15 16 246 247 0
3 -15 16 246 -247 0
3 -15 16 -246 248 0
3 -15 16 -246 -248 0
20 -4 17 249 250 0
20 -4 17 249 -250 0
20 -4 17 -249 251 0
20 -4 17 -249 -251 0
-13 9 -11 252 253 0
-13 9 -11 252 -253 0
-13 9 -11 -252 254 0
-13 9 -11 -252 -254 0
-12 -20 7 255 256 0
-12 -20 7 255 -256 0
-12 -20 7 -255 257 0
-12 -20 7 -255 -257 0
2 -13 -14 258 259 0
2 -13 -14 258 -259 0
2 -13 -14 -258 260 0
2 -13 -14 -258 -260 0
-8 -5 -14 261 262 0
-8 -5 -14 261 -262 0
-8 -5 -14 -261 263 0
-8 -5 -14 -261 -263 0
-14 -19 15 264 265 0
-14 -19 15 264 -265 0
-14 -19 15 -264 266 0
-14 -19 15 -264 -266 0
13 -8 -11 267 268 0
13 -8 -11 267 -268 0
13 -8 -11 -267 269 0
13 -8 -11 -267 -269 0
-13 10 15 270 271 0
-13 10 15 270 -271 0
-13 10 15 -270 272 0
-13 10 15 -270 -272 0
-5 -8 -3 273 274 0
-5 -8 -3 273 -274 0
-5 -8 -3 -273 275 0
-5 -8 -3 -273 -275 0
-18 -1 11 276 277 0
-18 -1 11 276 -277 0
-18 -1 11 -276 278 0
-18 -1 11 -276 -278 0
9 11 3 279 280 0
9 11 3 279 -280 0
9 11 3 -279 281 0
9 11 3 -279 -281 0
1 -17 15 282 283 0
1 -17 15 282 -283 0
1 -17 15 -282 284 0
1 -17 15 -282 -284 0
-16 4 -10 285 286 0
-16 4 -10 285 -286 0
-16 4 -10 -285 287 0
-16 4 -10 -285 -287 0
16 -19 -11 288 289 0
16 -19 -11 288 -289 0
16 -19 -11 -288 290 0
16 -19 -11 -288 -290 0
-6 -7 18 291 292 0
-6 -7 18 291 -292 0
-6 -7 18 -291 293 0
-6 -7 18 -291 -293 0
294 295 297 301 309 0
294 295 297 301 -309 0
294 295 297 -301 310 0
294 295 297 -301 -310 0
294 295 -297 302 311 0
294 295 -297 302 -311 0
294 295 -297 -302 312 0
294 295 -297 -302 -312 0
294 -295 298 303 313 0
294 -295 298 303 -313 0
294 -295 298 -303 314 0
294 -295 298 -303 -314 0
294 -295 -298 304 315 0
294 -295 -298 304 -315 0
294 -295 -298 -304 316 0
294 -295 -298 -304 -316 0
-294 296 299 305 317 0
-294 296 299 305 -317 0
-294 296 299 -305 318 0
-294 296 299 -305 -318 0
-294 296 -299 306 319 0
-294 296 -299 306 -319 0
-294 296 -299 -306 320 0
-294 296 -299 -306 -320 0
-294 -296 300 307 321 0
-294 -296 300 307 -321 0
-294 -296 300 -307 322 0
-294 -296 300 -307 -322 0
-294 -296 -300 308 323 0
-294 -296 -300 308 -323 0
-294 -296 -300 -308 324 0
-294 -296 -300 -308 -324 0
325 326 328 332 340 0
325 326 328 332 -340 0
325 326 328 -332 341 0
325 326 328 -332 -341 0
325 326 -328 333 342 0
325 326 -328 333 -342 0
325 326 -328 -333 343 0
325 326 -328 -333 -343 0
325 -326 329 334 344 0
325 -326 329 334 -344 0
325 -326 329 -334 345 0
325 -326 329 -334 -345 0
325 -326 -329 335 346 0
325 -326 -329 335 -346 0
325 -326 -329 -335 347 0
325 -326 -329 -335 -347 0
-325 327 330 336 348 0
-325 327 330 336 -348 0
-325 327 330 -336 349 0
-325 327 330 -336 -349 0
-325 327 -330 337 350 0
-325 327 -330 337 -350 0
-325 327 -330 -337 351 0
-325 327 -330 -337 -351 0
-325 -327 331 338 352 0
-325 -327 331 338 -352 0
-325 -327 331 -338 353 0
-325 -327 331 -338 -353 0
-325 -327 -331 339 354 0
-325 -327 -331 339 -354 0
-325 -327 -331 -339 355 0
-325 -327 -331 -339 -355 0
356 357 359 363 371 0
356 357 359 363 -371 0
356 357 359 -363 372 0
356 357 359 -363 -372 0
356 357 -359 364 373 0
356 357 -359 364 -373 0
356 357 -359 -364 374 0
356 357 -359 -364 -374 0
356 -357 360 365 375 0
356 -357 360 365 -375 0
356 -357 360 -365 376 0
356 -357 360 -365 -376 0
356 -357 -360 366 377 0
356 -357 -360 366 -377 0
356 -357 -360 -366 378 0
356 -357 -360 -366 -378 0
-356 358 361 367 379 0
-356 358 361 367 -379 0
-356 358 361 -367 380 0
-356 358 361 -367 -380 0
-356 358 -361 368 381 0
-356 358 -361 368 -381 0
-356 358 -361 -368 382 0
-356 358 -361 -368 -382 0
-356 -358 362 369 383 0
-356 -358 362 369 -383 0
-356 -358 362 -369 384 0
-356 -358 362 -369 -384 0
-356 -358 -362 370 385 0
-356 -358 -362 370 -385 0
-356 -358 -362 -370 386 0
-356 -358 -362 -370 -386 0

